p cnf 553 2319
-2 0
-3 0
-4 0
-5 0
-6 0
-7 0
1 0
50 8 0
-50 -8 0
-8 0
-10 0
-11 0
-12 0
-13 0
-14 0
9 0
2 16 58 0
-2 -16 0
-2 -58 0
-16 -58 0
15 16 17 18 19 20 21 0
-15 344 0
-16 345 0
-344 345 0
-344 -16 0
-17 346 0
-345 346 0
-345 -17 0
-18 347 0
-346 347 0
-346 -18 0
-19 348 0
-347 348 0
-347 -19 0
-20 349 0
-348 349 0
-348 -20 0
-349 -21 0
-15 8 22 0
-15 8 64 0
-15 22 64 0
-16 9 23 0
-16 9 65 0
-16 23 65 0
-17 10 24 0
-17 10 66 0
-17 24 66 0
-18 11 25 0
-18 11 67 0
-18 25 67 0
-19 12 26 0
-19 12 68 0
-19 26 68 0
-20 13 27 0
-20 13 69 0
-20 27 69 0
-21 14 28 0
-21 14 70 0
-21 28 70 0
-15 -8 -22 -64 0
-16 -9 -23 -65 0
-17 -10 -24 -66 0
-18 -11 -25 -67 0
-19 -12 -26 -68 0
-20 -13 -27 -69 0
-21 -14 -28 -70 0
-22 0
-23 0
-25 0
-26 0
-27 0
-28 0
24 0
17 31 73 0
-17 -31 0
-17 -73 0
-31 -73 0
29 30 31 32 33 34 35 0
-29 350 0
-30 351 0
-350 351 0
-350 -30 0
-31 352 0
-351 352 0
-351 -31 0
-32 353 0
-352 353 0
-352 -32 0
-33 354 0
-353 354 0
-353 -33 0
-34 355 0
-354 355 0
-354 -34 0
-355 -35 0
-29 22 36 0
-29 22 78 0
-29 36 78 0
-30 23 37 0
-30 23 79 0
-30 37 79 0
-31 24 38 0
-31 24 80 0
-31 38 80 0
-32 25 39 0
-32 25 81 0
-32 39 81 0
-33 26 40 0
-33 26 82 0
-33 40 82 0
-34 27 41 0
-34 27 83 0
-34 41 83 0
-35 28 42 0
-35 28 84 0
-35 42 84 0
-29 -22 -36 -78 0
-30 -23 -37 -79 0
-31 -24 -38 -80 0
-32 -25 -39 -81 0
-33 -26 -40 -82 0
-34 -27 -41 -83 0
-35 -28 -42 -84 0
36 37 38 39 40 41 42 0
-36 356 0
-37 357 0
-356 357 0
-356 -37 0
-38 358 0
-357 358 0
-357 -38 0
-39 359 0
-358 359 0
-358 -39 0
-40 360 0
-359 360 0
-359 -40 0
-41 361 0
-360 361 0
-360 -41 0
-361 -42 0
-36 29 43 0
-36 29 85 0
-36 43 85 0
-37 30 44 0
-37 30 86 0
-37 44 86 0
-38 31 45 0
-38 31 87 0
-38 45 87 0
-39 32 46 0
-39 32 88 0
-39 46 88 0
-40 33 47 0
-40 33 89 0
-40 47 89 0
-41 34 48 0
-41 34 90 0
-41 48 90 0
-42 35 49 0
-42 35 91 0
-42 49 91 0
-36 -29 -43 -85 0
-37 -30 -44 -86 0
-38 -31 -45 -87 0
-39 -32 -46 -88 0
-40 -33 -47 -89 0
-41 -34 -48 -90 0
-42 -35 -49 -91 0
-43 0
-44 0
-46 0
-47 0
-48 0
-49 0
45 0
94 38 0
-94 -38 0
50 51 52 53 54 55 56 0
-50 362 0
-51 363 0
-362 363 0
-362 -51 0
-52 364 0
-363 364 0
-363 -52 0
-53 365 0
-364 365 0
-364 -53 0
-54 366 0
-365 366 0
-365 -54 0
-55 367 0
-366 367 0
-366 -55 0
-367 -56 0
-50 99 57 0
-50 99 1 0
-50 57 1 0
-51 100 58 0
-51 100 2 0
-51 58 2 0
-52 101 59 0
-52 101 3 0
-52 59 3 0
-53 102 60 0
-53 102 4 0
-53 60 4 0
-54 103 61 0
-54 103 5 0
-54 61 5 0
-55 104 62 0
-55 104 6 0
-55 62 6 0
-56 105 63 0
-56 105 7 0
-56 63 7 0
-50 -99 -57 -1 0
-51 -100 -58 -2 0
-52 -101 -59 -3 0
-53 -102 -60 -4 0
-54 -103 -61 -5 0
-55 -104 -62 -6 0
-56 -105 -63 -7 0
57 58 59 60 61 62 63 0
-57 368 0
-58 369 0
-368 369 0
-368 -58 0
-59 370 0
-369 370 0
-369 -59 0
-60 371 0
-370 371 0
-370 -60 0
-61 372 0
-371 372 0
-371 -61 0
-62 373 0
-372 373 0
-372 -62 0
-373 -63 0
-57 106 64 8 0
-57 106 64 50 0
-57 106 8 50 0
-57 64 8 50 0
-58 107 65 9 0
-58 107 65 51 0
-58 107 9 51 0
-58 65 9 51 0
-59 108 66 10 0
-59 108 66 52 0
-59 108 10 52 0
-59 66 10 52 0
-60 109 67 11 0
-60 109 67 53 0
-60 109 11 53 0
-60 67 11 53 0
-61 110 68 12 0
-61 110 68 54 0
-61 110 12 54 0
-61 68 12 54 0
-62 111 69 13 0
-62 111 69 55 0
-62 111 13 55 0
-62 69 13 55 0
-63 112 70 14 0
-63 112 70 56 0
-63 112 14 56 0
-63 70 14 56 0
-57 -106 -64 -8 0
-57 -106 -64 -50 0
-57 -106 -8 -50 0
-57 -64 -8 -50 0
-58 -107 -65 -9 0
-58 -107 -65 -51 0
-58 -107 -9 -51 0
-58 -65 -9 -51 0
-59 -108 -66 -10 0
-59 -108 -66 -52 0
-59 -108 -10 -52 0
-59 -66 -10 -52 0
-60 -109 -67 -11 0
-60 -109 -67 -53 0
-60 -109 -11 -53 0
-60 -67 -11 -53 0
-61 -110 -68 -12 0
-61 -110 -68 -54 0
-61 -110 -12 -54 0
-61 -68 -12 -54 0
-62 -111 -69 -13 0
-62 -111 -69 -55 0
-62 -111 -13 -55 0
-62 -69 -13 -55 0
-63 -112 -70 -14 0
-63 -112 -70 -56 0
-63 -112 -14 -56 0
-63 -70 -14 -56 0
64 65 66 67 68 69 70 0
-64 374 0
-65 375 0
-374 375 0
-374 -65 0
-66 376 0
-375 376 0
-375 -66 0
-67 377 0
-376 377 0
-376 -67 0
-68 378 0
-377 378 0
-377 -68 0
-69 379 0
-378 379 0
-378 -69 0
-379 -70 0
-64 113 71 15 0
-64 113 71 57 0
-64 113 15 57 0
-64 71 15 57 0
-65 114 72 16 0
-65 114 72 58 0
-65 114 16 58 0
-65 72 16 58 0
-66 115 73 17 0
-66 115 73 59 0
-66 115 17 59 0
-66 73 17 59 0
-67 116 74 18 0
-67 116 74 60 0
-67 116 18 60 0
-67 74 18 60 0
-68 117 75 19 0
-68 117 75 61 0
-68 117 19 61 0
-68 75 19 61 0
-69 118 76 20 0
-69 118 76 62 0
-69 118 20 62 0
-69 76 20 62 0
-70 119 77 21 0
-70 119 77 63 0
-70 119 21 63 0
-70 77 21 63 0
-64 -113 -71 -15 0
-64 -113 -71 -57 0
-64 -113 -15 -57 0
-64 -71 -15 -57 0
-65 -114 -72 -16 0
-65 -114 -72 -58 0
-65 -114 -16 -58 0
-65 -72 -16 -58 0
-66 -115 -73 -17 0
-66 -115 -73 -59 0
-66 -115 -17 -59 0
-66 -73 -17 -59 0
-67 -116 -74 -18 0
-67 -116 -74 -60 0
-67 -116 -18 -60 0
-67 -74 -18 -60 0
-68 -117 -75 -19 0
-68 -117 -75 -61 0
-68 -117 -19 -61 0
-68 -75 -19 -61 0
-69 -118 -76 -20 0
-69 -118 -76 -62 0
-69 -118 -20 -62 0
-69 -76 -20 -62 0
-70 -119 -77 -21 0
-70 -119 -77 -63 0
-70 -119 -21 -63 0
-70 -77 -21 -63 0
71 72 73 74 75 76 77 0
-71 380 0
-72 381 0
-380 381 0
-380 -72 0
-73 382 0
-381 382 0
-381 -73 0
-74 383 0
-382 383 0
-382 -74 0
-75 384 0
-383 384 0
-383 -75 0
-76 385 0
-384 385 0
-384 -76 0
-385 -77 0
-71 120 78 22 0
-71 120 78 64 0
-71 120 22 64 0
-71 78 22 64 0
-72 121 79 23 0
-72 121 79 65 0
-72 121 23 65 0
-72 79 23 65 0
-73 122 80 24 0
-73 122 80 66 0
-73 122 24 66 0
-73 80 24 66 0
-74 123 81 25 0
-74 123 81 67 0
-74 123 25 67 0
-74 81 25 67 0
-75 124 82 26 0
-75 124 82 68 0
-75 124 26 68 0
-75 82 26 68 0
-76 125 83 27 0
-76 125 83 69 0
-76 125 27 69 0
-76 83 27 69 0
-77 126 84 28 0
-77 126 84 70 0
-77 126 28 70 0
-77 84 28 70 0
-71 -120 -78 -22 0
-71 -120 -78 -64 0
-71 -120 -22 -64 0
-71 -78 -22 -64 0
-72 -121 -79 -23 0
-72 -121 -79 -65 0
-72 -121 -23 -65 0
-72 -79 -23 -65 0
-73 -122 -80 -24 0
-73 -122 -80 -66 0
-73 -122 -24 -66 0
-73 -80 -24 -66 0
-74 -123 -81 -25 0
-74 -123 -81 -67 0
-74 -123 -25 -67 0
-74 -81 -25 -67 0
-75 -124 -82 -26 0
-75 -124 -82 -68 0
-75 -124 -26 -68 0
-75 -82 -26 -68 0
-76 -125 -83 -27 0
-76 -125 -83 -69 0
-76 -125 -27 -69 0
-76 -83 -27 -69 0
-77 -126 -84 -28 0
-77 -126 -84 -70 0
-77 -126 -28 -70 0
-77 -84 -28 -70 0
78 79 80 81 82 83 84 0
-78 386 0
-79 387 0
-386 387 0
-386 -79 0
-80 388 0
-387 388 0
-387 -80 0
-81 389 0
-388 389 0
-388 -81 0
-82 390 0
-389 390 0
-389 -82 0
-83 391 0
-390 391 0
-390 -83 0
-391 -84 0
-78 127 85 29 0
-78 127 85 71 0
-78 127 29 71 0
-78 85 29 71 0
-79 128 86 30 0
-79 128 86 72 0
-79 128 30 72 0
-79 86 30 72 0
-80 129 87 31 0
-80 129 87 73 0
-80 129 31 73 0
-80 87 31 73 0
-81 130 88 32 0
-81 130 88 74 0
-81 130 32 74 0
-81 88 32 74 0
-82 131 89 33 0
-82 131 89 75 0
-82 131 33 75 0
-82 89 33 75 0
-83 132 90 34 0
-83 132 90 76 0
-83 132 34 76 0
-83 90 34 76 0
-84 133 91 35 0
-84 133 91 77 0
-84 133 35 77 0
-84 91 35 77 0
-78 -127 -85 -29 0
-78 -127 -85 -71 0
-78 -127 -29 -71 0
-78 -85 -29 -71 0
-79 -128 -86 -30 0
-79 -128 -86 -72 0
-79 -128 -30 -72 0
-79 -86 -30 -72 0
-80 -129 -87 -31 0
-80 -129 -87 -73 0
-80 -129 -31 -73 0
-80 -87 -31 -73 0
-81 -130 -88 -32 0
-81 -130 -88 -74 0
-81 -130 -32 -74 0
-81 -88 -32 -74 0
-82 -131 -89 -33 0
-82 -131 -89 -75 0
-82 -131 -33 -75 0
-82 -89 -33 -75 0
-83 -132 -90 -34 0
-83 -132 -90 -76 0
-83 -132 -34 -76 0
-83 -90 -34 -76 0
-84 -133 -91 -35 0
-84 -133 -91 -77 0
-84 -133 -35 -77 0
-84 -91 -35 -77 0
85 86 87 88 89 90 91 0
-85 392 0
-86 393 0
-392 393 0
-392 -86 0
-87 394 0
-393 394 0
-393 -87 0
-88 395 0
-394 395 0
-394 -88 0
-89 396 0
-395 396 0
-395 -89 0
-90 397 0
-396 397 0
-396 -90 0
-397 -91 0
-85 134 92 36 0
-85 134 92 78 0
-85 134 36 78 0
-85 92 36 78 0
-86 135 93 37 0
-86 135 93 79 0
-86 135 37 79 0
-86 93 37 79 0
-87 136 94 38 0
-87 136 94 80 0
-87 136 38 80 0
-87 94 38 80 0
-88 137 95 39 0
-88 137 95 81 0
-88 137 39 81 0
-88 95 39 81 0
-89 138 96 40 0
-89 138 96 82 0
-89 138 40 82 0
-89 96 40 82 0
-90 139 97 41 0
-90 139 97 83 0
-90 139 41 83 0
-90 97 41 83 0
-91 140 98 42 0
-91 140 98 84 0
-91 140 42 84 0
-91 98 42 84 0
-85 -134 -92 -36 0
-85 -134 -92 -78 0
-85 -134 -36 -78 0
-85 -92 -36 -78 0
-86 -135 -93 -37 0
-86 -135 -93 -79 0
-86 -135 -37 -79 0
-86 -93 -37 -79 0
-87 -136 -94 -38 0
-87 -136 -94 -80 0
-87 -136 -38 -80 0
-87 -94 -38 -80 0
-88 -137 -95 -39 0
-88 -137 -95 -81 0
-88 -137 -39 -81 0
-88 -95 -39 -81 0
-89 -138 -96 -40 0
-89 -138 -96 -82 0
-89 -138 -40 -82 0
-89 -96 -40 -82 0
-90 -139 -97 -41 0
-90 -139 -97 -83 0
-90 -139 -41 -83 0
-90 -97 -41 -83 0
-91 -140 -98 -42 0
-91 -140 -98 -84 0
-91 -140 -42 -84 0
-91 -98 -42 -84 0
-92 0
-93 0
-94 0
-96 0
-97 0
-98 0
95 0
144 88 46 0
-144 -88 0
-144 -46 0
-88 -46 0
-99 0
-100 0
-101 0
-102 0
-104 0
-105 0
103 0
152 110 54 0
-152 -110 0
-152 -54 0
-110 -54 0
106 107 108 109 110 111 112 0
-106 398 0
-107 399 0
-398 399 0
-398 -107 0
-108 400 0
-399 400 0
-399 -108 0
-109 401 0
-400 401 0
-400 -109 0
-110 402 0
-401 402 0
-401 -110 0
-111 403 0
-402 403 0
-402 -111 0
-403 -112 0
-106 155 113 57 0
-106 155 113 99 0
-106 155 57 99 0
-106 113 57 99 0
-107 156 114 58 0
-107 156 114 100 0
-107 156 58 100 0
-107 114 58 100 0
-108 157 115 59 0
-108 157 115 101 0
-108 157 59 101 0
-108 115 59 101 0
-109 158 116 60 0
-109 158 116 102 0
-109 158 60 102 0
-109 116 60 102 0
-110 159 117 61 0
-110 159 117 103 0
-110 159 61 103 0
-110 117 61 103 0
-111 160 118 62 0
-111 160 118 104 0
-111 160 62 104 0
-111 118 62 104 0
-112 161 119 63 0
-112 161 119 105 0
-112 161 63 105 0
-112 119 63 105 0
-106 -155 -113 -57 0
-106 -155 -113 -99 0
-106 -155 -57 -99 0
-106 -113 -57 -99 0
-107 -156 -114 -58 0
-107 -156 -114 -100 0
-107 -156 -58 -100 0
-107 -114 -58 -100 0
-108 -157 -115 -59 0
-108 -157 -115 -101 0
-108 -157 -59 -101 0
-108 -115 -59 -101 0
-109 -158 -116 -60 0
-109 -158 -116 -102 0
-109 -158 -60 -102 0
-109 -116 -60 -102 0
-110 -159 -117 -61 0
-110 -159 -117 -103 0
-110 -159 -61 -103 0
-110 -117 -61 -103 0
-111 -160 -118 -62 0
-111 -160 -118 -104 0
-111 -160 -62 -104 0
-111 -118 -62 -104 0
-112 -161 -119 -63 0
-112 -161 -119 -105 0
-112 -161 -63 -105 0
-112 -119 -63 -105 0
113 114 115 116 117 118 119 0
-113 404 0
-114 405 0
-404 405 0
-404 -114 0
-115 406 0
-405 406 0
-405 -115 0
-116 407 0
-406 407 0
-406 -116 0
-117 408 0
-407 408 0
-407 -117 0
-118 409 0
-408 409 0
-408 -118 0
-409 -119 0
-113 162 120 64 0
-113 162 120 106 0
-113 162 64 106 0
-113 120 64 106 0
-114 163 121 65 0
-114 163 121 107 0
-114 163 65 107 0
-114 121 65 107 0
-115 164 122 66 0
-115 164 122 108 0
-115 164 66 108 0
-115 122 66 108 0
-116 165 123 67 0
-116 165 123 109 0
-116 165 67 109 0
-116 123 67 109 0
-117 166 124 68 0
-117 166 124 110 0
-117 166 68 110 0
-117 124 68 110 0
-118 167 125 69 0
-118 167 125 111 0
-118 167 69 111 0
-118 125 69 111 0
-119 168 126 70 0
-119 168 126 112 0
-119 168 70 112 0
-119 126 70 112 0
-113 -162 -120 -64 0
-113 -162 -120 -106 0
-113 -162 -64 -106 0
-113 -120 -64 -106 0
-114 -163 -121 -65 0
-114 -163 -121 -107 0
-114 -163 -65 -107 0
-114 -121 -65 -107 0
-115 -164 -122 -66 0
-115 -164 -122 -108 0
-115 -164 -66 -108 0
-115 -122 -66 -108 0
-116 -165 -123 -67 0
-116 -165 -123 -109 0
-116 -165 -67 -109 0
-116 -123 -67 -109 0
-117 -166 -124 -68 0
-117 -166 -124 -110 0
-117 -166 -68 -110 0
-117 -124 -68 -110 0
-118 -167 -125 -69 0
-118 -167 -125 -111 0
-118 -167 -69 -111 0
-118 -125 -69 -111 0
-119 -168 -126 -70 0
-119 -168 -126 -112 0
-119 -168 -70 -112 0
-119 -126 -70 -112 0
120 121 122 123 124 125 126 0
-120 410 0
-121 411 0
-410 411 0
-410 -121 0
-122 412 0
-411 412 0
-411 -122 0
-123 413 0
-412 413 0
-412 -123 0
-124 414 0
-413 414 0
-413 -124 0
-125 415 0
-414 415 0
-414 -125 0
-415 -126 0
-120 169 127 71 0
-120 169 127 113 0
-120 169 71 113 0
-120 127 71 113 0
-121 170 128 72 0
-121 170 128 114 0
-121 170 72 114 0
-121 128 72 114 0
-122 171 129 73 0
-122 171 129 115 0
-122 171 73 115 0
-122 129 73 115 0
-123 172 130 74 0
-123 172 130 116 0
-123 172 74 116 0
-123 130 74 116 0
-124 173 131 75 0
-124 173 131 117 0
-124 173 75 117 0
-124 131 75 117 0
-125 174 132 76 0
-125 174 132 118 0
-125 174 76 118 0
-125 132 76 118 0
-126 175 133 77 0
-126 175 133 119 0
-126 175 77 119 0
-126 133 77 119 0
-120 -169 -127 -71 0
-120 -169 -127 -113 0
-120 -169 -71 -113 0
-120 -127 -71 -113 0
-121 -170 -128 -72 0
-121 -170 -128 -114 0
-121 -170 -72 -114 0
-121 -128 -72 -114 0
-122 -171 -129 -73 0
-122 -171 -129 -115 0
-122 -171 -73 -115 0
-122 -129 -73 -115 0
-123 -172 -130 -74 0
-123 -172 -130 -116 0
-123 -172 -74 -116 0
-123 -130 -74 -116 0
-124 -173 -131 -75 0
-124 -173 -131 -117 0
-124 -173 -75 -117 0
-124 -131 -75 -117 0
-125 -174 -132 -76 0
-125 -174 -132 -118 0
-125 -174 -76 -118 0
-125 -132 -76 -118 0
-126 -175 -133 -77 0
-126 -175 -133 -119 0
-126 -175 -77 -119 0
-126 -133 -77 -119 0
-127 0
-128 0
-129 0
-130 0
-131 0
-133 0
132 0
181 139 83 125 0
-181 -139 0
-181 -83 0
-181 -125 0
-139 -83 0
-139 -125 0
-83 -125 0
134 135 136 137 138 139 140 0
-134 416 0
-135 417 0
-416 417 0
-416 -135 0
-136 418 0
-417 418 0
-417 -136 0
-137 419 0
-418 419 0
-418 -137 0
-138 420 0
-419 420 0
-419 -138 0
-139 421 0
-420 421 0
-420 -139 0
-421 -140 0
-134 183 141 85 0
-134 183 141 127 0
-134 183 85 127 0
-134 141 85 127 0
-135 184 142 86 0
-135 184 142 128 0
-135 184 86 128 0
-135 142 86 128 0
-136 185 143 87 0
-136 185 143 129 0
-136 185 87 129 0
-136 143 87 129 0
-137 186 144 88 0
-137 186 144 130 0
-137 186 88 130 0
-137 144 88 130 0
-138 187 145 89 0
-138 187 145 131 0
-138 187 89 131 0
-138 145 89 131 0
-139 188 146 90 0
-139 188 146 132 0
-139 188 90 132 0
-139 146 90 132 0
-140 189 147 91 0
-140 189 147 133 0
-140 189 91 133 0
-140 147 91 133 0
-134 -183 -141 -85 0
-134 -183 -141 -127 0
-134 -183 -85 -127 0
-134 -141 -85 -127 0
-135 -184 -142 -86 0
-135 -184 -142 -128 0
-135 -184 -86 -128 0
-135 -142 -86 -128 0
-136 -185 -143 -87 0
-136 -185 -143 -129 0
-136 -185 -87 -129 0
-136 -143 -87 -129 0
-137 -186 -144 -88 0
-137 -186 -144 -130 0
-137 -186 -88 -130 0
-137 -144 -88 -130 0
-138 -187 -145 -89 0
-138 -187 -145 -131 0
-138 -187 -89 -131 0
-138 -145 -89 -131 0
-139 -188 -146 -90 0
-139 -188 -146 -132 0
-139 -188 -90 -132 0
-139 -146 -90 -132 0
-140 -189 -147 -91 0
-140 -189 -147 -133 0
-140 -189 -91 -133 0
-140 -147 -91 -133 0
-141 0
-142 0
-143 0
-144 0
-145 0
-146 0
147 0
196 140 98 0
-196 -140 0
-196 -98 0
-140 -98 0
148 149 150 151 152 153 154 0
-148 422 0
-149 423 0
-422 423 0
-422 -149 0
-150 424 0
-423 424 0
-423 -150 0
-151 425 0
-424 425 0
-424 -151 0
-152 426 0
-425 426 0
-425 -152 0
-153 427 0
-426 427 0
-426 -153 0
-427 -154 0
-148 197 155 0
-148 197 99 0
-148 155 99 0
-149 198 156 0
-149 198 100 0
-149 156 100 0
-150 199 157 0
-150 199 101 0
-150 157 101 0
-151 200 158 0
-151 200 102 0
-151 158 102 0
-152 201 159 0
-152 201 103 0
-152 159 103 0
-153 202 160 0
-153 202 104 0
-153 160 104 0
-154 203 161 0
-154 203 105 0
-154 161 105 0
-148 -197 -155 -99 0
-149 -198 -156 -100 0
-150 -199 -157 -101 0
-151 -200 -158 -102 0
-152 -201 -159 -103 0
-153 -202 -160 -104 0
-154 -203 -161 -105 0
155 156 157 158 159 160 161 0
-155 428 0
-156 429 0
-428 429 0
-428 -156 0
-157 430 0
-429 430 0
-429 -157 0
-158 431 0
-430 431 0
-430 -158 0
-159 432 0
-431 432 0
-431 -159 0
-160 433 0
-432 433 0
-432 -160 0
-433 -161 0
-155 204 162 106 0
-155 204 162 148 0
-155 204 106 148 0
-155 162 106 148 0
-156 205 163 107 0
-156 205 163 149 0
-156 205 107 149 0
-156 163 107 149 0
-157 206 164 108 0
-157 206 164 150 0
-157 206 108 150 0
-157 164 108 150 0
-158 207 165 109 0
-158 207 165 151 0
-158 207 109 151 0
-158 165 109 151 0
-159 208 166 110 0
-159 208 166 152 0
-159 208 110 152 0
-159 166 110 152 0
-160 209 167 111 0
-160 209 167 153 0
-160 209 111 153 0
-160 167 111 153 0
-161 210 168 112 0
-161 210 168 154 0
-161 210 112 154 0
-161 168 112 154 0
-155 -204 -162 -106 0
-155 -204 -162 -148 0
-155 -204 -106 -148 0
-155 -162 -106 -148 0
-156 -205 -163 -107 0
-156 -205 -163 -149 0
-156 -205 -107 -149 0
-156 -163 -107 -149 0
-157 -206 -164 -108 0
-157 -206 -164 -150 0
-157 -206 -108 -150 0
-157 -164 -108 -150 0
-158 -207 -165 -109 0
-158 -207 -165 -151 0
-158 -207 -109 -151 0
-158 -165 -109 -151 0
-159 -208 -166 -110 0
-159 -208 -166 -152 0
-159 -208 -110 -152 0
-159 -166 -110 -152 0
-160 -209 -167 -111 0
-160 -209 -167 -153 0
-160 -209 -111 -153 0
-160 -167 -111 -153 0
-161 -210 -168 -112 0
-161 -210 -168 -154 0
-161 -210 -112 -154 0
-161 -168 -112 -154 0
162 163 164 165 166 167 168 0
-162 434 0
-163 435 0
-434 435 0
-434 -163 0
-164 436 0
-435 436 0
-435 -164 0
-165 437 0
-436 437 0
-436 -165 0
-166 438 0
-437 438 0
-437 -166 0
-167 439 0
-438 439 0
-438 -167 0
-439 -168 0
-162 211 169 113 0
-162 211 169 155 0
-162 211 113 155 0
-162 169 113 155 0
-163 212 170 114 0
-163 212 170 156 0
-163 212 114 156 0
-163 170 114 156 0
-164 213 171 115 0
-164 213 171 157 0
-164 213 115 157 0
-164 171 115 157 0
-165 214 172 116 0
-165 214 172 158 0
-165 214 116 158 0
-165 172 116 158 0
-166 215 173 117 0
-166 215 173 159 0
-166 215 117 159 0
-166 173 117 159 0
-167 216 174 118 0
-167 216 174 160 0
-167 216 118 160 0
-167 174 118 160 0
-168 217 175 119 0
-168 217 175 161 0
-168 217 119 161 0
-168 175 119 161 0
-162 -211 -169 -113 0
-162 -211 -169 -155 0
-162 -211 -113 -155 0
-162 -169 -113 -155 0
-163 -212 -170 -114 0
-163 -212 -170 -156 0
-163 -212 -114 -156 0
-163 -170 -114 -156 0
-164 -213 -171 -115 0
-164 -213 -171 -157 0
-164 -213 -115 -157 0
-164 -171 -115 -157 0
-165 -214 -172 -116 0
-165 -214 -172 -158 0
-165 -214 -116 -158 0
-165 -172 -116 -158 0
-166 -215 -173 -117 0
-166 -215 -173 -159 0
-166 -215 -117 -159 0
-166 -173 -117 -159 0
-167 -216 -174 -118 0
-167 -216 -174 -160 0
-167 -216 -118 -160 0
-167 -174 -118 -160 0
-168 -217 -175 -119 0
-168 -217 -175 -161 0
-168 -217 -119 -161 0
-168 -175 -119 -161 0
169 170 171 172 173 174 175 0
-169 440 0
-170 441 0
-440 441 0
-440 -170 0
-171 442 0
-441 442 0
-441 -171 0
-172 443 0
-442 443 0
-442 -172 0
-173 444 0
-443 444 0
-443 -173 0
-174 445 0
-444 445 0
-444 -174 0
-445 -175 0
-169 218 176 120 0
-169 218 176 162 0
-169 218 120 162 0
-169 176 120 162 0
-170 219 177 121 0
-170 219 177 163 0
-170 219 121 163 0
-170 177 121 163 0
-171 220 178 122 0
-171 220 178 164 0
-171 220 122 164 0
-171 178 122 164 0
-172 221 179 123 0
-172 221 179 165 0
-172 221 123 165 0
-172 179 123 165 0
-173 222 180 124 0
-173 222 180 166 0
-173 222 124 166 0
-173 180 124 166 0
-174 223 181 125 0
-174 223 181 167 0
-174 223 125 167 0
-174 181 125 167 0
-175 224 182 126 0
-175 224 182 168 0
-175 224 126 168 0
-175 182 126 168 0
-169 -218 -176 -120 0
-169 -218 -176 -162 0
-169 -218 -120 -162 0
-169 -176 -120 -162 0
-170 -219 -177 -121 0
-170 -219 -177 -163 0
-170 -219 -121 -163 0
-170 -177 -121 -163 0
-171 -220 -178 -122 0
-171 -220 -178 -164 0
-171 -220 -122 -164 0
-171 -178 -122 -164 0
-172 -221 -179 -123 0
-172 -221 -179 -165 0
-172 -221 -123 -165 0
-172 -179 -123 -165 0
-173 -222 -180 -124 0
-173 -222 -180 -166 0
-173 -222 -124 -166 0
-173 -180 -124 -166 0
-174 -223 -181 -125 0
-174 -223 -181 -167 0
-174 -223 -125 -167 0
-174 -181 -125 -167 0
-175 -224 -182 -126 0
-175 -224 -182 -168 0
-175 -224 -126 -168 0
-175 -182 -126 -168 0
-176 0
-177 0
-178 0
-180 0
-181 0
-182 0
179 0
228 186 130 172 0
-228 -186 0
-228 -130 0
-228 -172 0
-186 -130 0
-186 -172 0
-130 -172 0
183 184 185 186 187 188 189 0
-183 446 0
-184 447 0
-446 447 0
-446 -184 0
-185 448 0
-447 448 0
-447 -185 0
-186 449 0
-448 449 0
-448 -186 0
-187 450 0
-449 450 0
-449 -187 0
-188 451 0
-450 451 0
-450 -188 0
-451 -189 0
-183 232 190 134 0
-183 232 190 176 0
-183 232 134 176 0
-183 190 134 176 0
-184 233 191 135 0
-184 233 191 177 0
-184 233 135 177 0
-184 191 135 177 0
-185 234 192 136 0
-185 234 192 178 0
-185 234 136 178 0
-185 192 136 178 0
-186 235 193 137 0
-186 235 193 179 0
-186 235 137 179 0
-186 193 137 179 0
-187 236 194 138 0
-187 236 194 180 0
-187 236 138 180 0
-187 194 138 180 0
-188 237 195 139 0
-188 237 195 181 0
-188 237 139 181 0
-188 195 139 181 0
-189 238 196 140 0
-189 238 196 182 0
-189 238 140 182 0
-189 196 140 182 0
-183 -232 -190 -134 0
-183 -232 -190 -176 0
-183 -232 -134 -176 0
-183 -190 -134 -176 0
-184 -233 -191 -135 0
-184 -233 -191 -177 0
-184 -233 -135 -177 0
-184 -191 -135 -177 0
-185 -234 -192 -136 0
-185 -234 -192 -178 0
-185 -234 -136 -178 0
-185 -192 -136 -178 0
-186 -235 -193 -137 0
-186 -235 -193 -179 0
-186 -235 -137 -179 0
-186 -193 -137 -179 0
-187 -236 -194 -138 0
-187 -236 -194 -180 0
-187 -236 -138 -180 0
-187 -194 -138 -180 0
-188 -237 -195 -139 0
-188 -237 -195 -181 0
-188 -237 -139 -181 0
-188 -195 -139 -181 0
-189 -238 -196 -140 0
-189 -238 -196 -182 0
-189 -238 -140 -182 0
-189 -196 -140 -182 0
190 191 192 193 194 195 196 0
-190 452 0
-191 453 0
-452 453 0
-452 -191 0
-192 454 0
-453 454 0
-453 -192 0
-193 455 0
-454 455 0
-454 -193 0
-194 456 0
-455 456 0
-455 -194 0
-195 457 0
-456 457 0
-456 -195 0
-457 -196 0
-190 239 183 0
-190 239 141 0
-190 183 141 0
-191 240 184 0
-191 240 142 0
-191 184 142 0
-192 241 185 0
-192 241 143 0
-192 185 143 0
-193 242 186 0
-193 242 144 0
-193 186 144 0
-194 243 187 0
-194 243 145 0
-194 187 145 0
-195 244 188 0
-195 244 146 0
-195 188 146 0
-196 245 189 0
-196 245 147 0
-196 189 147 0
-190 -239 -183 -141 0
-191 -240 -184 -142 0
-192 -241 -185 -143 0
-193 -242 -186 -144 0
-194 -243 -187 -145 0
-195 -244 -188 -146 0
-196 -245 -189 -147 0
197 198 199 200 201 202 203 0
-197 458 0
-198 459 0
-458 459 0
-458 -198 0
-199 460 0
-459 460 0
-459 -199 0
-200 461 0
-460 461 0
-460 -200 0
-201 462 0
-461 462 0
-461 -201 0
-202 463 0
-462 463 0
-462 -202 0
-463 -203 0
-197 246 204 0
-197 246 148 0
-197 204 148 0
-198 247 205 0
-198 247 149 0
-198 205 149 0
-199 248 206 0
-199 248 150 0
-199 206 150 0
-200 249 207 0
-200 249 151 0
-200 207 151 0
-201 250 208 0
-201 250 152 0
-201 208 152 0
-202 251 209 0
-202 251 153 0
-202 209 153 0
-203 252 210 0
-203 252 154 0
-203 210 154 0
-197 -246 -204 -148 0
-198 -247 -205 -149 0
-199 -248 -206 -150 0
-200 -249 -207 -151 0
-201 -250 -208 -152 0
-202 -251 -209 -153 0
-203 -252 -210 -154 0
204 205 206 207 208 209 210 0
-204 464 0
-205 465 0
-464 465 0
-464 -205 0
-206 466 0
-465 466 0
-465 -206 0
-207 467 0
-466 467 0
-466 -207 0
-208 468 0
-467 468 0
-467 -208 0
-209 469 0
-468 469 0
-468 -209 0
-469 -210 0
-204 253 211 155 0
-204 253 211 197 0
-204 253 155 197 0
-204 211 155 197 0
-205 254 212 156 0
-205 254 212 198 0
-205 254 156 198 0
-205 212 156 198 0
-206 255 213 157 0
-206 255 213 199 0
-206 255 157 199 0
-206 213 157 199 0
-207 256 214 158 0
-207 256 214 200 0
-207 256 158 200 0
-207 214 158 200 0
-208 257 215 159 0
-208 257 215 201 0
-208 257 159 201 0
-208 215 159 201 0
-209 258 216 160 0
-209 258 216 202 0
-209 258 160 202 0
-209 216 160 202 0
-210 259 217 161 0
-210 259 217 203 0
-210 259 161 203 0
-210 217 161 203 0
-204 -253 -211 -155 0
-204 -253 -211 -197 0
-204 -253 -155 -197 0
-204 -211 -155 -197 0
-205 -254 -212 -156 0
-205 -254 -212 -198 0
-205 -254 -156 -198 0
-205 -212 -156 -198 0
-206 -255 -213 -157 0
-206 -255 -213 -199 0
-206 -255 -157 -199 0
-206 -213 -157 -199 0
-207 -256 -214 -158 0
-207 -256 -214 -200 0
-207 -256 -158 -200 0
-207 -214 -158 -200 0
-208 -257 -215 -159 0
-208 -257 -215 -201 0
-208 -257 -159 -201 0
-208 -215 -159 -201 0
-209 -258 -216 -160 0
-209 -258 -216 -202 0
-209 -258 -160 -202 0
-209 -216 -160 -202 0
-210 -259 -217 -161 0
-210 -259 -217 -203 0
-210 -259 -161 -203 0
-210 -217 -161 -203 0
211 212 213 214 215 216 217 0
-211 470 0
-212 471 0
-470 471 0
-470 -212 0
-213 472 0
-471 472 0
-471 -213 0
-214 473 0
-472 473 0
-472 -214 0
-215 474 0
-473 474 0
-473 -215 0
-216 475 0
-474 475 0
-474 -216 0
-475 -217 0
-211 260 218 162 0
-211 260 218 204 0
-211 260 162 204 0
-211 218 162 204 0
-212 261 219 163 0
-212 261 219 205 0
-212 261 163 205 0
-212 219 163 205 0
-213 262 220 164 0
-213 262 220 206 0
-213 262 164 206 0
-213 220 164 206 0
-214 263 221 165 0
-214 263 221 207 0
-214 263 165 207 0
-214 221 165 207 0
-215 264 222 166 0
-215 264 222 208 0
-215 264 166 208 0
-215 222 166 208 0
-216 265 223 167 0
-216 265 223 209 0
-216 265 167 209 0
-216 223 167 209 0
-217 266 224 168 0
-217 266 224 210 0
-217 266 168 210 0
-217 224 168 210 0
-211 -260 -218 -162 0
-211 -260 -218 -204 0
-211 -260 -162 -204 0
-211 -218 -162 -204 0
-212 -261 -219 -163 0
-212 -261 -219 -205 0
-212 -261 -163 -205 0
-212 -219 -163 -205 0
-213 -262 -220 -164 0
-213 -262 -220 -206 0
-213 -262 -164 -206 0
-213 -220 -164 -206 0
-214 -263 -221 -165 0
-214 -263 -221 -207 0
-214 -263 -165 -207 0
-214 -221 -165 -207 0
-215 -264 -222 -166 0
-215 -264 -222 -208 0
-215 -264 -166 -208 0
-215 -222 -166 -208 0
-216 -265 -223 -167 0
-216 -265 -223 -209 0
-216 -265 -167 -209 0
-216 -223 -167 -209 0
-217 -266 -224 -168 0
-217 -266 -224 -210 0
-217 -266 -168 -210 0
-217 -224 -168 -210 0
218 219 220 221 222 223 224 0
-218 476 0
-219 477 0
-476 477 0
-476 -219 0
-220 478 0
-477 478 0
-477 -220 0
-221 479 0
-478 479 0
-478 -221 0
-222 480 0
-479 480 0
-479 -222 0
-223 481 0
-480 481 0
-480 -223 0
-481 -224 0
-218 267 225 169 0
-218 267 225 211 0
-218 267 169 211 0
-218 225 169 211 0
-219 268 226 170 0
-219 268 226 212 0
-219 268 170 212 0
-219 226 170 212 0
-220 269 227 171 0
-220 269 227 213 0
-220 269 171 213 0
-220 227 171 213 0
-221 270 228 172 0
-221 270 228 214 0
-221 270 172 214 0
-221 228 172 214 0
-222 271 229 173 0
-222 271 229 215 0
-222 271 173 215 0
-222 229 173 215 0
-223 272 230 174 0
-223 272 230 216 0
-223 272 174 216 0
-223 230 174 216 0
-224 273 231 175 0
-224 273 231 217 0
-224 273 175 217 0
-224 231 175 217 0
-218 -267 -225 -169 0
-218 -267 -225 -211 0
-218 -267 -169 -211 0
-218 -225 -169 -211 0
-219 -268 -226 -170 0
-219 -268 -226 -212 0
-219 -268 -170 -212 0
-219 -226 -170 -212 0
-220 -269 -227 -171 0
-220 -269 -227 -213 0
-220 -269 -171 -213 0
-220 -227 -171 -213 0
-221 -270 -228 -172 0
-221 -270 -228 -214 0
-221 -270 -172 -214 0
-221 -228 -172 -214 0
-222 -271 -229 -173 0
-222 -271 -229 -215 0
-222 -271 -173 -215 0
-222 -229 -173 -215 0
-223 -272 -230 -174 0
-223 -272 -230 -216 0
-223 -272 -174 -216 0
-223 -230 -174 -216 0
-224 -273 -231 -175 0
-224 -273 -231 -217 0
-224 -273 -175 -217 0
-224 -231 -175 -217 0
-225 0
-226 0
-227 0
-228 0
-229 0
-230 0
231 0
280 238 182 224 0
-280 -238 0
-280 -182 0
-280 -224 0
-238 -182 0
-238 -224 0
-182 -224 0
-232 0
-233 0
-234 0
-235 0
-236 0
-238 0
237 0
286 244 188 230 0
-286 -244 0
-286 -188 0
-286 -230 0
-244 -188 0
-244 -230 0
-188 -230 0
239 240 241 242 243 244 245 0
-239 482 0
-240 483 0
-482 483 0
-482 -240 0
-241 484 0
-483 484 0
-483 -241 0
-242 485 0
-484 485 0
-484 -242 0
-243 486 0
-485 486 0
-485 -243 0
-244 487 0
-486 487 0
-486 -244 0
-487 -245 0
-239 288 232 0
-239 288 190 0
-239 232 190 0
-240 289 233 0
-240 289 191 0
-240 233 191 0
-241 290 234 0
-241 290 192 0
-241 234 192 0
-242 291 235 0
-242 291 193 0
-242 235 193 0
-243 292 236 0
-243 292 194 0
-243 236 194 0
-244 293 237 0
-244 293 195 0
-244 237 195 0
-245 294 238 0
-245 294 196 0
-245 238 196 0
-239 -288 -232 -190 0
-240 -289 -233 -191 0
-241 -290 -234 -192 0
-242 -291 -235 -193 0
-243 -292 -236 -194 0
-244 -293 -237 -195 0
-245 -294 -238 -196 0
246 247 248 249 250 251 252 0
-246 488 0
-247 489 0
-488 489 0
-488 -247 0
-248 490 0
-489 490 0
-489 -248 0
-249 491 0
-490 491 0
-490 -249 0
-250 492 0
-491 492 0
-491 -250 0
-251 493 0
-492 493 0
-492 -251 0
-493 -252 0
-246 295 253 0
-246 295 197 0
-246 253 197 0
-247 296 254 0
-247 296 198 0
-247 254 198 0
-248 297 255 0
-248 297 199 0
-248 255 199 0
-249 298 256 0
-249 298 200 0
-249 256 200 0
-250 299 257 0
-250 299 201 0
-250 257 201 0
-251 300 258 0
-251 300 202 0
-251 258 202 0
-252 301 259 0
-252 301 203 0
-252 259 203 0
-246 -295 -253 -197 0
-247 -296 -254 -198 0
-248 -297 -255 -199 0
-249 -298 -256 -200 0
-250 -299 -257 -201 0
-251 -300 -258 -202 0
-252 -301 -259 -203 0
253 254 255 256 257 258 259 0
-253 494 0
-254 495 0
-494 495 0
-494 -254 0
-255 496 0
-495 496 0
-495 -255 0
-256 497 0
-496 497 0
-496 -256 0
-257 498 0
-497 498 0
-497 -257 0
-258 499 0
-498 499 0
-498 -258 0
-499 -259 0
-253 302 260 204 0
-253 302 260 246 0
-253 302 204 246 0
-253 260 204 246 0
-254 303 261 205 0
-254 303 261 247 0
-254 303 205 247 0
-254 261 205 247 0
-255 304 262 206 0
-255 304 262 248 0
-255 304 206 248 0
-255 262 206 248 0
-256 305 263 207 0
-256 305 263 249 0
-256 305 207 249 0
-256 263 207 249 0
-257 306 264 208 0
-257 306 264 250 0
-257 306 208 250 0
-257 264 208 250 0
-258 307 265 209 0
-258 307 265 251 0
-258 307 209 251 0
-258 265 209 251 0
-259 308 266 210 0
-259 308 266 252 0
-259 308 210 252 0
-259 266 210 252 0
-253 -302 -260 -204 0
-253 -302 -260 -246 0
-253 -302 -204 -246 0
-253 -260 -204 -246 0
-254 -303 -261 -205 0
-254 -303 -261 -247 0
-254 -303 -205 -247 0
-254 -261 -205 -247 0
-255 -304 -262 -206 0
-255 -304 -262 -248 0
-255 -304 -206 -248 0
-255 -262 -206 -248 0
-256 -305 -263 -207 0
-256 -305 -263 -249 0
-256 -305 -207 -249 0
-256 -263 -207 -249 0
-257 -306 -264 -208 0
-257 -306 -264 -250 0
-257 -306 -208 -250 0
-257 -264 -208 -250 0
-258 -307 -265 -209 0
-258 -307 -265 -251 0
-258 -307 -209 -251 0
-258 -265 -209 -251 0
-259 -308 -266 -210 0
-259 -308 -266 -252 0
-259 -308 -210 -252 0
-259 -266 -210 -252 0
-261 0
-262 0
-263 0
-264 0
-265 0
-266 0
260 0
309 267 211 253 0
-309 -267 0
-309 -211 0
-309 -253 0
-267 -211 0
-267 -253 0
-211 -253 0
-267 0
-269 0
-270 0
-271 0
-272 0
-273 0
268 0
317 275 219 261 0
-317 -275 0
-317 -219 0
-317 -261 0
-275 -219 0
-275 -261 0
-219 -261 0
274 275 276 277 278 279 280 0
-274 500 0
-275 501 0
-500 501 0
-500 -275 0
-276 502 0
-501 502 0
-501 -276 0
-277 503 0
-502 503 0
-502 -277 0
-278 504 0
-503 504 0
-503 -278 0
-279 505 0
-504 505 0
-504 -279 0
-505 -280 0
-274 323 281 225 0
-274 323 281 267 0
-274 323 225 267 0
-274 281 225 267 0
-275 324 282 226 0
-275 324 282 268 0
-275 324 226 268 0
-275 282 226 268 0
-276 325 283 227 0
-276 325 283 269 0
-276 325 227 269 0
-276 283 227 269 0
-277 326 284 228 0
-277 326 284 270 0
-277 326 228 270 0
-277 284 228 270 0
-278 327 285 229 0
-278 327 285 271 0
-278 327 229 271 0
-278 285 229 271 0
-279 328 286 230 0
-279 328 286 272 0
-279 328 230 272 0
-279 286 230 272 0
-280 329 287 231 0
-280 329 287 273 0
-280 329 231 273 0
-280 287 231 273 0
-274 -323 -281 -225 0
-274 -323 -281 -267 0
-274 -323 -225 -267 0
-274 -281 -225 -267 0
-275 -324 -282 -226 0
-275 -324 -282 -268 0
-275 -324 -226 -268 0
-275 -282 -226 -268 0
-276 -325 -283 -227 0
-276 -325 -283 -269 0
-276 -325 -227 -269 0
-276 -283 -227 -269 0
-277 -326 -284 -228 0
-277 -326 -284 -270 0
-277 -326 -228 -270 0
-277 -284 -228 -270 0
-278 -327 -285 -229 0
-278 -327 -285 -271 0
-278 -327 -229 -271 0
-278 -285 -229 -271 0
-279 -328 -286 -230 0
-279 -328 -286 -272 0
-279 -328 -230 -272 0
-279 -286 -230 -272 0
-280 -329 -287 -231 0
-280 -329 -287 -273 0
-280 -329 -231 -273 0
-280 -287 -231 -273 0
281 282 283 284 285 286 287 0
-281 506 0
-282 507 0
-506 507 0
-506 -282 0
-283 508 0
-507 508 0
-507 -283 0
-284 509 0
-508 509 0
-508 -284 0
-285 510 0
-509 510 0
-509 -285 0
-286 511 0
-510 511 0
-510 -286 0
-511 -287 0
-281 330 288 232 0
-281 330 288 274 0
-281 330 232 274 0
-281 288 232 274 0
-282 331 289 233 0
-282 331 289 275 0
-282 331 233 275 0
-282 289 233 275 0
-283 332 290 234 0
-283 332 290 276 0
-283 332 234 276 0
-283 290 234 276 0
-284 333 291 235 0
-284 333 291 277 0
-284 333 235 277 0
-284 291 235 277 0
-285 334 292 236 0
-285 334 292 278 0
-285 334 236 278 0
-285 292 236 278 0
-286 335 293 237 0
-286 335 293 279 0
-286 335 237 279 0
-286 293 237 279 0
-287 336 294 238 0
-287 336 294 280 0
-287 336 238 280 0
-287 294 238 280 0
-281 -330 -288 -232 0
-281 -330 -288 -274 0
-281 -330 -232 -274 0
-281 -288 -232 -274 0
-282 -331 -289 -233 0
-282 -331 -289 -275 0
-282 -331 -233 -275 0
-282 -289 -233 -275 0
-283 -332 -290 -234 0
-283 -332 -290 -276 0
-283 -332 -234 -276 0
-283 -290 -234 -276 0
-284 -333 -291 -235 0
-284 -333 -291 -277 0
-284 -333 -235 -277 0
-284 -291 -235 -277 0
-285 -334 -292 -236 0
-285 -334 -292 -278 0
-285 -334 -236 -278 0
-285 -292 -236 -278 0
-286 -335 -293 -237 0
-286 -335 -293 -279 0
-286 -335 -237 -279 0
-286 -293 -237 -279 0
-287 -336 -294 -238 0
-287 -336 -294 -280 0
-287 -336 -238 -280 0
-287 -294 -238 -280 0
288 289 290 291 292 293 294 0
-288 512 0
-289 513 0
-512 513 0
-512 -289 0
-290 514 0
-513 514 0
-513 -290 0
-291 515 0
-514 515 0
-514 -291 0
-292 516 0
-515 516 0
-515 -292 0
-293 517 0
-516 517 0
-516 -293 0
-517 -294 0
-288 337 281 0
-288 337 239 0
-288 281 239 0
-289 338 282 0
-289 338 240 0
-289 282 240 0
-290 339 283 0
-290 339 241 0
-290 283 241 0
-291 340 284 0
-291 340 242 0
-291 284 242 0
-292 341 285 0
-292 341 243 0
-292 285 243 0
-293 342 286 0
-293 342 244 0
-293 286 244 0
-294 343 287 0
-294 343 245 0
-294 287 245 0
-288 -337 -281 -239 0
-289 -338 -282 -240 0
-290 -339 -283 -241 0
-291 -340 -284 -242 0
-292 -341 -285 -243 0
-293 -342 -286 -244 0
-294 -343 -287 -245 0
295 296 297 298 299 300 301 0
-295 518 0
-296 519 0
-518 519 0
-518 -296 0
-297 520 0
-519 520 0
-519 -297 0
-298 521 0
-520 521 0
-520 -298 0
-299 522 0
-521 522 0
-521 -299 0
-300 523 0
-522 523 0
-522 -300 0
-523 -301 0
-295 246 0
-295 302 0
-296 247 0
-296 303 0
-297 248 0
-297 304 0
-298 249 0
-298 305 0
-299 250 0
-299 306 0
-300 251 0
-300 307 0
-301 252 0
-301 308 0
302 303 304 305 306 307 308 0
-302 524 0
-303 525 0
-524 525 0
-524 -303 0
-304 526 0
-525 526 0
-525 -304 0
-305 527 0
-526 527 0
-526 -305 0
-306 528 0
-527 528 0
-527 -306 0
-307 529 0
-528 529 0
-528 -307 0
-529 -308 0
-302 253 309 0
-302 253 295 0
-302 309 295 0
-303 254 310 0
-303 254 296 0
-303 310 296 0
-304 255 311 0
-304 255 297 0
-304 311 297 0
-305 256 312 0
-305 256 298 0
-305 312 298 0
-306 257 313 0
-306 257 299 0
-306 313 299 0
-307 258 314 0
-307 258 300 0
-307 314 300 0
-308 259 315 0
-308 259 301 0
-308 315 301 0
-302 -253 -309 -295 0
-303 -254 -310 -296 0
-304 -255 -311 -297 0
-305 -256 -312 -298 0
-306 -257 -313 -299 0
-307 -258 -314 -300 0
-308 -259 -315 -301 0
309 310 311 312 313 314 315 0
-309 530 0
-310 531 0
-530 531 0
-530 -310 0
-311 532 0
-531 532 0
-531 -311 0
-312 533 0
-532 533 0
-532 -312 0
-313 534 0
-533 534 0
-533 -313 0
-314 535 0
-534 535 0
-534 -314 0
-535 -315 0
-309 260 316 0
-309 260 302 0
-309 316 302 0
-310 261 317 0
-310 261 303 0
-310 317 303 0
-311 262 318 0
-311 262 304 0
-311 318 304 0
-312 263 319 0
-312 263 305 0
-312 319 305 0
-313 264 320 0
-313 264 306 0
-313 320 306 0
-314 265 321 0
-314 265 307 0
-314 321 307 0
-315 266 322 0
-315 266 308 0
-315 322 308 0
-309 -260 -316 -302 0
-310 -261 -317 -303 0
-311 -262 -318 -304 0
-312 -263 -319 -305 0
-313 -264 -320 -306 0
-314 -265 -321 -307 0
-315 -266 -322 -308 0
316 317 318 319 320 321 322 0
-316 536 0
-317 537 0
-536 537 0
-536 -317 0
-318 538 0
-537 538 0
-537 -318 0
-319 539 0
-538 539 0
-538 -319 0
-320 540 0
-539 540 0
-539 -320 0
-321 541 0
-540 541 0
-540 -321 0
-541 -322 0
-316 267 323 0
-316 267 309 0
-316 323 309 0
-317 268 324 0
-317 268 310 0
-317 324 310 0
-318 269 325 0
-318 269 311 0
-318 325 311 0
-319 270 326 0
-319 270 312 0
-319 326 312 0
-320 271 327 0
-320 271 313 0
-320 327 313 0
-321 272 328 0
-321 272 314 0
-321 328 314 0
-322 273 329 0
-322 273 315 0
-322 329 315 0
-316 -267 -323 -309 0
-317 -268 -324 -310 0
-318 -269 -325 -311 0
-319 -270 -326 -312 0
-320 -271 -327 -313 0
-321 -272 -328 -314 0
-322 -273 -329 -315 0
323 324 325 326 327 328 329 0
-323 542 0
-324 543 0
-542 543 0
-542 -324 0
-325 544 0
-543 544 0
-543 -325 0
-326 545 0
-544 545 0
-544 -326 0
-327 546 0
-545 546 0
-545 -327 0
-328 547 0
-546 547 0
-546 -328 0
-547 -329 0
-323 274 330 0
-323 274 316 0
-323 330 316 0
-324 275 331 0
-324 275 317 0
-324 331 317 0
-325 276 332 0
-325 276 318 0
-325 332 318 0
-326 277 333 0
-326 277 319 0
-326 333 319 0
-327 278 334 0
-327 278 320 0
-327 334 320 0
-328 279 335 0
-328 279 321 0
-328 335 321 0
-329 280 336 0
-329 280 322 0
-329 336 322 0
-323 -274 -330 -316 0
-324 -275 -331 -317 0
-325 -276 -332 -318 0
-326 -277 -333 -319 0
-327 -278 -334 -320 0
-328 -279 -335 -321 0
-329 -280 -336 -322 0
330 331 332 333 334 335 336 0
-330 548 0
-331 549 0
-548 549 0
-548 -331 0
-332 550 0
-549 550 0
-549 -332 0
-333 551 0
-550 551 0
-550 -333 0
-334 552 0
-551 552 0
-551 -334 0
-335 553 0
-552 553 0
-552 -335 0
-553 -336 0
-330 281 337 0
-330 281 323 0
-330 337 323 0
-331 282 338 0
-331 282 324 0
-331 338 324 0
-332 283 339 0
-332 283 325 0
-332 339 325 0
-333 284 340 0
-333 284 326 0
-333 340 326 0
-334 285 341 0
-334 285 327 0
-334 341 327 0
-335 286 342 0
-335 286 328 0
-335 342 328 0
-336 287 343 0
-336 287 329 0
-336 343 329 0
-330 -281 -337 -323 0
-331 -282 -338 -324 0
-332 -283 -339 -325 0
-333 -284 -340 -326 0
-334 -285 -341 -327 0
-335 -286 -342 -328 0
-336 -287 -343 -329 0
-337 0
-338 0
-339 0
-340 0
-342 0
-343 0
341 0
292 334 0
-292 -334 0
50 57 64 71 78 85 0
106 113 120 134 0
148 155 162 169 183 190 0
197 204 211 218 239 0
57 106 155 204 253 302 0
51 58 65 72 79 86 0
107 114 121 135 0
149 156 163 170 184 191 0
198 205 212 219 240 0
16 65 114 163 212 310 0
31 80 276 325 0
38 87 136 185 283 332 0
109 116 123 137 0
39 88 137 186 284 333 0
152 159 166 173 187 194 0
201 208 215 222 243 0
250 257 278 285 292 0
61 110 159 208 257 306 0
19 68 117 166 215 313 0
75 124 173 222 320 0
33 82 278 327 0
40 89 138 187 285 334 0
153 160 167 174 188 195 0
154 161 168 175 189 196 0
42 91 140 189 287 336 0